Route #1: 32 33 53 73 95 24
Route #2: 7 2 45 43 29 36 72 57
Route #3: 8 17
Route #4: 87 37 6 49 14
Route #5: 93 75
Route #6: 80 94 56 21
Route #7: 31 46 35
Route #8: 25 65 78 42 28
Route #9: 92 9 86
Route #10: 27 97 19
Route #11: 1 70 54
Route #12: 40 67 88 44
Route #13: 52 91 50
Route #14: 76 55 16 69
Route #15: 58 12 5
Route #16: 18 10 39
Route #17: 74 13 4
Route #18: 20 41 22 15
Route #19: 100 61 23
Route #20: 3 77 63
Route #21: 30 85 11 79
Route #22: 89 98 99 62 71
Route #23: 83 51 81
Route #24: 66 84 90 68
Route #25: 59 60 82
Route #26: 38 47 26 48 96 64 34
Cost 27591.0000
Time 16.0005